184
173
161
269
130
165
206
161
159
126
179
237
269
200
178
169
148
205
221
153
253
179
163
179
229
216
225
217
249
172
185
183
192
218
141
192
294
195
176
193
233
244
143
190
168
205
252
187
235
209
294
202
230
222
190
181
269
210
133
202
227
205
183
222
242
208
218
229
246
196
140
110
227
191
221
232
216
258
252
266
204
151
167
206
182
225
197
242
247
173
185
258
213
231
272
217
246
245
219
137
